31
0	0
1	1659
2	0
3	327
4	313
5	1684
6	235
7	0
8	247
9	1670
10	1120
11	0
12	596
13	595
14	159
15	1665
16	1546
17	493
18	1670
19	1548
20	325
21	241
22	1676
23	327
24	1680
25	602
26	1686
27	1688
28	1346
29	774
30	1690
